dates = {'2021-12-04','2021-12-05','2021-12-06','2021-12-07','2021-12-08','2021-12-09','2021-12-10','2021-12-11','2021-12-12','2021-12-13','2021-12-14','2021-12-15','2021-12-16','2021-12-17','2021-12-18','2021-12-19','2021-12-20','2021-12-21','2021-12-22','2021-12-23','2021-12-24','2021-12-25','2021-12-26','2021-12-27','2021-12-28','2021-12-29','2021-12-30','2021-12-31','2022-01-01','2022-01-02','2022-01-03','2022-01-04','2022-01-05','2022-01-06','2022-01-07','2022-01-08','2022-01-09','2022-01-10','2022-01-11','2022-01-12','2022-01-13','2022-01-14','2022-01-15','2022-01-16','2022-01-17','2022-01-18','2022-01-19','2022-01-20','2022-01-21','2022-01-22','2022-01-23','2022-01-24','2022-01-25','2022-01-26','2022-01-27','2022-01-28','2022-01-29','2022-01-30','2022-01-31','2022-02-01'};

daysOfWeek = [Saturday,Sunday,Monday,Tuesday,Wednesday,Thursday,Friday,Saturday,Sunday,Monday,Tuesday,Wednesday,Thursday,Friday,Saturday,Sunday,Monday,Tuesday,Wednesday,Thursday,Friday,Saturday,Sunday,Monday,Tuesday,Wednesday,Thursday,Friday,Saturday,Sunday,Monday,Tuesday,Wednesday,Thursday,Friday,Saturday,Sunday,Monday,Tuesday,Wednesday,Thursday,Friday,Saturday,Sunday,Monday,Tuesday,Wednesday,Thursday,Friday,Saturday,Sunday,Monday,Tuesday,Wednesday,Thursday,Friday,Saturday,Sunday,Monday,Tuesday];

% For this week, how many people will be here.
numPeople = [125,125,125,125,125,124,124,124,124,119,119,127,135,154,154,154,146,146
,144,153,152,152,152,152,161,161,164,164,164,164,164,164,164,164,164,165
,165,154,154,162,162,162,162,162,162,162,162,162,163,162,162,162,167,164
,167,164,164,164,158,160];

% Physical workers need 50 to 100 % more nutrients per day.
numPhysicalWorkers = [46.5,46.5,46.5,46.5,46.5,46.5,45.5,45.5,45.5,45.5,43.5,44.0,44.0,53.5
,53.5,53.5,53.5,53.5,53.5,56.0,56.0,55.0,55.0,55.0,58.5,58.5,58.5,58.5
,58.5,58.5,58.5,58.5,58.5,58.5,58.5,58.5,58.5,58.5,54.0,56.5,56.5,56.5
,56.5,56.5,56.5,56.5,56.5,56.5,56.5,56.5,56.5,56.5,57.5,57.5,57.5,57.5
,57.5,57.5,57.5,54.0];

% Males need +25% more nutrients per day.
numMen = [96,96,96,96,96,96,95,95,95,100,94,101,108,126,126,126,126,119
,119,128,128,127,127,127,136,135,137,137,137,137,137,137,137,137,137,138
,138,138,131,136,136,136,136,136,136,136,136,136,139,139,136,136,140,140
,140,140,137,137,137,132];

% Num people who do not eat categories. contains = {none, meat, milk, gluten, egg, nut, seed, sugars}
numRefusals = [| 0,0,7,0,0,0,32,1 | 0,0,7,0,0,0,32,1 | 0,0,7,0,0,0,32,1 | 0,0,7,0,0,0,32,1 | 0,0,7,0,0,0,32,1 | 0,3,35,0,0,0,20,12 | 0,3,35,0,0,0,20,12 | 0,3,35,0,0,0,20,12 | 0,3,35,0,0,0,20,12 | 0,0,13,0,0,0,0,5 | 0,0,13,0,0,0,0,5 | 0,4,0,0,5,13,6,0 | 0,0,4,0,2,0,26,8 | 0,4,0,0,0,10,28,0 | 0,4,0,0,0,10,28,0 | 0,4,0,0,0,10,28,0 | 0,12,0,17,0,2,0,0 | 0,12,0,17,0,2,0,0 | 0,0,0,0,1,0,0,0 | 0,9,8,3,11,30,20,0 | 0,0,0,0,3,6,16,21 | 0,0,0,0,3,6,16,21 | 0,0,0,0,3,6,16,21 | 0,0,0,0,3,6,16,21 | 0,0,0,4,0,2,3,0 | 0,0,0,4,0,2,3,0 | 0,5,0,0,14,23,0,0 | 0,5,0,0,14,23,0,0 | 0,5,0,0,14,23,0,0 | 0,5,0,0,14,23,0,0 | 0,5,0,0,14,23,0,0 | 0,5,0,0,14,23,0,0 | 0,5,0,0,14,23,0,0 | 0,5,0,0,14,23,0,0 | 0,5,0,0,14,23,0,0 | 0,0,3,17,0,10,4,0 | 0,0,3,17,0,10,4,0 | 0,0,5,0,10,9,1,0 | 0,0,5,0,10,9,1,0 | 0,0,0,0,0,6,0,9 | 0,0,0,0,0,6,0,9 | 0,0,0,0,0,6,0,9 | 0,0,0,0,0,6,0,9 | 0,0,0,0,0,6,0,9 | 0,0,0,0,0,6,0,9 | 0,0,0,0,0,6,0,9 | 0,0,0,0,0,6,0,9 | 0,0,0,0,0,6,0,9 | 0,39,8,7,0,0,8,0 | 0,0,1,0,0,8,28,0 | 0,0,1,0,0,8,28,0 | 0,0,1,0,0,8,28,0 | 0,0,0,16,13,0,6,17 | 0,12,3,0,9,22,0,0 | 0,6,0,5,11,6,15,1 | 0,0,8,1,9,9,24,0 | 0,0,8,1,9,9,24,0 | 0,0,8,1,9,9,24,0 | 0,0,44,20,0,0,26,0 | 0,0,7,1,0,0,23,0 |];

